100
100
100
100
99
98
97
97
97
96
95
95
95
95
94
92
92
91
91
90
90
89
89
89
87
86
85
83
82
82
80
80
79
78
76
75
74
72
72
71
71
71
70
66
65
63
63
63
63
62
61
60
60
60
60
59
57
55
55
55
53
52
51
46
46
46
45
45
42
41
41
41
40
40
39
39
39
39
38
38
37
36
36
35
35
35
35
34
34
31
30
29
29
28
27
27
27
27
26
26
22
22
